20
1 0 42
2 0 42
2 1 15
3 0 66
3 1 64
3 2 4
4 0 70
4 1 32
4 2 78
4 3 1
5 0 46
5 1 57
5 2 57
5 3 43
5 4 8
6 0 71
6 1 3
6 2 8
6 3 21
6 4 61
6 5 15
7 0 22
7 1 69
7 2 60
7 3 1
7 4 21
7 5 4
7 6 73
8 0 3
8 1 80
8 2 69
8 3 40
8 4 46
8 5 14
8 6 12
8 7 80
9 0 47
9 1 49
9 2 72
9 3 65
9 4 27
9 5 61
9 6 67
9 7 67
9 8 61
10 0 28
10 1 69
10 2 54
10 3 18
10 4 22
10 5 37
10 6 14
10 7 20
10 8 33
10 9 36
11 0 49
11 1 3
11 2 75
11 3 35
11 4 57
11 5 16
11 6 20
11 7 1
11 8 18
11 9 69
11 10 55
12 0 44
12 1 71
12 2 78
12 3 33
12 4 80
12 5 67
12 6 58
12 7 43
12 8 16
12 9 73
12 10 21
12 11 1
13 0 45
13 1 37
13 2 80
13 3 77
13 4 3
13 5 32
13 6 34
13 7 51
13 8 69
13 9 66
13 10 8
13 11 72
13 12 38
14 0 27
14 1 16
14 2 9
14 3 37
14 4 67
14 5 74
14 6 65
14 7 50
14 8 52
14 9 40
14 10 40
14 11 29
14 12 75
14 13 51
15 0 30
15 1 5
15 2 1
15 3 57
15 4 80
15 5 15
15 6 76
15 7 6
15 8 12
15 9 8
15 10 35
15 11 3
15 12 15
15 13 5
15 14 80
16 0 50
16 1 79
16 2 66
16 3 75
16 4 21
16 5 4
16 6 48
16 7 51
16 8 53
16 9 30
16 10 50
16 11 79
16 12 58
16 13 28
16 14 37
16 15 15
17 0 32
17 1 36
17 2 47
17 3 15
17 4 47
17 5 69
17 6 18
17 7 32
17 8 40
17 9 4
17 10 21
17 11 48
17 12 26
17 13 74
17 14 59
17 15 4
17 16 69
18 0 27
18 1 27
18 2 24
18 3 45
18 4 62
18 5 58
18 6 9
18 7 18
18 8 49
18 9 60
18 10 53
18 11 6
18 12 26
18 13 75
18 14 61
18 15 12
18 16 41
18 17 47
19 0 66
19 1 17
19 2 49
19 3 45
19 4 73
19 5 45
19 6 42
19 7 42
19 8 71
19 9 32
19 10 63
19 11 16
19 12 56
19 13 60
19 14 69
19 15 2
19 16 20
19 17 6
19 18 56
